6,2	0,0	7,1	7,3	0,0	0,0	0,0	0,0	0,0	14,2
13,0	10,8	0,0	8,5	6,0	0,0	0,0	16,2	0,0	0,0
0,0	0,0	16,0	0,0	11,5	13,6	0,0	0,0	19,7	0,0
7,6	0,0	14,7	0,0	0,0	0,0	17,3	0,0	0,0	0,0
0,0	12,3	0,0	19,7	19,7	0,0	0,0	12,4	0,0	0,0
0,0	11,0	15,5	0,0	12,9	16,5	0,0	0,0	17,8	0,0
0,0	18,8	0,0	7,8	0,0	0,0	10,0	0,0	0,0	6,1
11,1	0,0	14,9	0,0	0,0	0,0	0,0	0,0	0,0	5,4
0,0	20,0	0,0	16,5	16,2	0,0	0,0	8,0	0,0	0,0
0,0	0,0	15,2	0,0	0,0	12,5	8,9	0,0	0,0	6,2
0,0	5,7	0,0	0,0	15,5	0,0	13,5	0,0	11,8	9,5
5,1	0,0	9,8	0,0	10,5	0,0	19,8	5,6	9,5	0,0
0,0	15,1	0,0	0,0	0,0	16,4	0,0	18,4	10,1	19,9
7,3	18,4	17,5	0,0	0,0	18,9	0,0	13,0	12,3	0,0
14,5	0,0	13,4	0,0	17,5	8,1	19,3	5,6	0,0	0,0
0,0	10,5	0,0	5,2	0,0	6,2	0,0	14,9	0,0	0,0
16,3	0,0	6,0	8,3	16,4	0,0	0,0	15,5	0,0	0,0
0,0	0,0	14,6	0,0	0,0	9,4	14,6	0,0	13,1	11,2
9,4	0,0	0,0	18,0	18,6	15,3	15,2	14,1	0,0	13,0
0,0	19,7	0,0	13,4	0,0	0,0	16,3	0,0	8,0	9,0
									
2,6	3,5	3,3	4,5	5,0	4,7	3,8	4,1	3,4	4,5
